10
20
1077
1039
760
656
600
451
337
291
58
44
150	403
246	448
518	677
914	720
635	486
693	522
732	521
855	605
407	266
860	517
23	402
225	358
362	522
67	81
584	680
770	594
162	119
895	643
905	579
632	380
